words_easy_train/words_315_SAT.qaiger
aag 83 16 0 1 67
2
14
16
18
22
30
28
10
32
20
26
24
4
8
12
6
167
34 20 18
36 34 22
38 36 24
40 38 26
42 40 28
44 42 30
46 43 31
48 47 45
50 9 6
52 51 9
54 53 10
56 55 13
58 56 15
60 57 14
62 61 59
64 63 48
66 62 49
68 41 29
70 69 43
72 54 12
74 73 57
76 75 70
78 20 4
80 79 3
82 80 19
84 21 5
86 85 35
88 86 83
90 35 23
92 91 37
94 93 89
96 8 7
98 97 51
100 37 25
102 101 39
104 103 99
106 92 88
108 107 6
110 109 105
112 110 95
114 102 98
116 52 11
118 117 55
120 39 27
122 121 41
124 122 118
126 125 115
128 126 113
130 123 119
132 74 71
134 133 131
136 134 129
138 137 77
140 139 67
142 141 65
144 33 16
146 32 17
148 147 145
150 149 58
152 148 59
154 153 151
156 154 44
158 155 45
160 159 157
162 161 142
164 160 143
166 165 163
i0 1 x1[0]
i1 1 x1[6]
i2 1 x1[7]
i3 2 y2[0]
i4 2 y2[2]
i5 2 y2[6]
i6 2 y2[5]
i7 1 x1[4]
i8 2 y2[7]
i9 2 y2[1]
i10 2 y2[4]
i11 2 y2[3]
i12 1 x1[1]
i13 1 x1[3]
i14 1 x1[5]
i15 1 x1[2]
o0 bv[0]
c
simplified
  >=
    subtract
      1 x1
      -236
    invert
      2 y2
