words_easy_train/words_315_SAT.qaiger.qdimacs
p cnf 83 202
a 1 2 3 4 5 6 7 8 0
e 9 10 11 12 13 14 15 16 17 18 19 20 21 22 23 24 25 26 27 28 29 30 31 32 33 34 35 36 37 38 39 40 41 42 43 44 45 46 47 48 49 50 51 52 53 54 55 56 57 58 59 60 61 62 63 64 65 66 67 68 69 70 71 72 73 74 75 76 77 78 79 80 81 82 83 0
-10 -9 17 0
10 -17 0
9 -17 0
-17 -11 18 0
17 -18 0
11 -18 0
-18 -12 19 0
18 -19 0
12 -19 0
-19 -13 20 0
19 -20 0
13 -20 0
-20 -14 21 0
20 -21 0
14 -21 0
-21 -15 22 0
21 -22 0
15 -22 0
21 15 23 0
-21 -23 0
-15 -23 0
23 22 24 0
-23 -24 0
-22 -24 0
4 -3 25 0
-4 -25 0
3 -25 0
25 4 26 0
-25 -26 0
-4 -26 0
26 -5 27 0
-26 -27 0
5 -27 0
27 6 28 0
-27 -28 0
-6 -28 0
-28 7 29 0
28 -29 0
-7 -29 0
28 -7 30 0
-28 -30 0
7 -30 0
30 29 31 0
-30 -31 0
-29 -31 0
31 -24 32 0
-31 -32 0
24 -32 0
-31 24 33 0
31 -33 0
-24 -33 0
20 14 34 0
-20 -34 0
-14 -34 0
34 21 35 0
-34 -35 0
-21 -35 0
-27 -6 36 0
27 -36 0
6 -36 0
36 28 37 0
-36 -37 0
-28 -37 0
37 -35 38 0
-37 -38 0
35 -38 0
-10 -2 39 0
10 -39 0
2 -39 0
39 1 40 0
-39 -40 0
-1 -40 0
-40 9 41 0
40 -41 0
-9 -41 0
10 2 42 0
-10 -42 0
-2 -42 0
42 17 43 0
-42 -43 0
-17 -43 0
-43 41 44 0
43 -44 0
-41 -44 0
17 11 45 0
-17 -45 0
-11 -45 0
45 18 46 0
-45 -46 0
-18 -46 0
46 44 47 0
-46 -47 0
-44 -47 0
-4 3 48 0
4 -48 0
-3 -48 0
48 25 49 0
-48 -49 0
-25 -49 0
18 12 50 0
-18 -50 0
-12 -50 0
50 19 51 0
-50 -51 0
-19 -51 0
51 49 52 0
-51 -52 0
-49 -52 0
-46 -44 53 0
46 -53 0
44 -53 0
53 -3 54 0
-53 -54 0
3 -54 0
54 52 55 0
-54 -55 0
-52 -55 0
-55 47 56 0
55 -56 0
-47 -56 0
-51 -49 57 0
51 -57 0
49 -57 0
-26 5 58 0
26 -58 0
-5 -58 0
58 27 59 0
-58 -59 0
-27 -59 0
19 13 60 0
-19 -60 0
-13 -60 0
60 20 61 0
-60 -61 0
-20 -61 0
-61 -59 62 0
61 -62 0
59 -62 0
62 57 63 0
-62 -63 0
-57 -63 0
-63 56 64 0
63 -64 0
-56 -64 0
61 59 65 0
-61 -65 0
-59 -65 0
-37 35 66 0
37 -66 0
-35 -66 0
66 65 67 0
-66 -67 0
-65 -67 0
-67 64 68 0
67 -68 0
-64 -68 0
68 38 69 0
-68 -69 0
-38 -69 0
69 33 70 0
-69 -70 0
-33 -70 0
70 32 71 0
-70 -71 0
-32 -71 0
16 -8 72 0
-16 -72 0
8 -72 0
-16 8 73 0
16 -73 0
-8 -73 0
73 72 74 0
-73 -74 0
-72 -74 0
74 -29 75 0
-74 -75 0
29 -75 0
-74 29 76 0
74 -76 0
-29 -76 0
76 75 77 0
-76 -77 0
-75 -77 0
-77 -22 78 0
77 -78 0
22 -78 0
77 22 79 0
-77 -79 0
-22 -79 0
79 78 80 0
-79 -80 0
-78 -80 0
80 -71 81 0
-80 -81 0
71 -81 0
-80 71 82 0
80 -82 0
-71 -82 0
82 81 83 0
-82 -83 0
-81 -83 0
-83 0
